Welcome to the CBC MILP Solver 
Version: 2.10.7 
Build Date: Feb 14 2022 

command line - cbc inputs/new_tr/order/jump_2_15_tiers_input.lp sec 1800 solve solu solutions/new_tr/jump_2_15_tiers_input.lp (default strategy 1)
seconds was changed from 1e+100 to 1800
Continuous objective value is 27033.6 - 0.00 seconds
Cgl0002I 75 variables fixed
Cgl0003I 0 fixed, 1 tightened bounds, 96 strengthened rows, 0 substitutions
Cgl0003I 0 fixed, 0 tightened bounds, 21 strengthened rows, 0 substitutions
Cgl0003I 0 fixed, 0 tightened bounds, 2 strengthened rows, 0 substitutions
Cgl0004I processed model has 497 rows, 173 columns (173 integer (157 of which binary)) and 1621 elements
Cutoff increment increased from 1e-05 to 0.9999
Cbc0045I 1 integer variables out of 173 objects (173 integer) have cost of 1 - high priority
Cbc0045I branch on satisfied Y create fake objective Y random cost Y
Cbc0038I Initial state - 93 integers unsatisfied sum - 23.5185
Cbc0038I Pass   1: suminf.    4.31786 (19) obj. 29696 iterations 163
Cbc0038I Pass   2: suminf.    0.00000 (0) obj. 29696 iterations 35
Cbc0038I Solution found of 29696
Cbc0038I Cleaned solution of 29696
Cbc0038I Before mini branch and bound, 77 integers at bound fixed and 0 continuous
Cbc0038I Full problem 497 rows 173 columns, reduced to 322 rows 96 columns - 13 fixed gives 197, 52 - ok now
Cbc0038I Full problem 497 rows 173 columns, reduced to 28 rows 12 columns
Cbc0038I Mini branch and bound improved solution from 29696 to 29696 (0.04 seconds)
Cbc0038I Round again with cutoff of 29437.3
Cbc0038I Reduced cost fixing fixed 4 variables on major pass 2
Cbc0038I Pass   3: suminf.    5.65251 (53) obj. 29437 iterations 30
Cbc0038I Pass   4: suminf.    1.03205 (30) obj. 29437.3 iterations 37
Cbc0038I Pass   5: suminf.    6.64617 (31) obj. 29437.3 iterations 86
Cbc0038I Pass   6: suminf.    3.14889 (24) obj. 29437.3 iterations 38
Cbc0038I Pass   7: suminf.    6.34767 (29) obj. 29437.3 iterations 52
Cbc0038I Pass   8: suminf.    2.48174 (24) obj. 29437.3 iterations 24
Cbc0038I Pass   9: suminf.    7.21984 (36) obj. 29437.3 iterations 97
Cbc0038I Pass  10: suminf.    7.21984 (36) obj. 29437.3 iterations 2
Cbc0038I Pass  11: suminf.    5.06513 (34) obj. 29437.3 iterations 74
Cbc0038I Pass  12: suminf.    1.51171 (23) obj. 29437.3 iterations 33
Cbc0038I Pass  13: suminf.    6.05505 (36) obj. 29437.3 iterations 75
Cbc0038I Pass  14: suminf.    3.99252 (26) obj. 29437.3 iterations 18
Cbc0038I Pass  15: suminf.    5.48778 (21) obj. 29437.3 iterations 55
Cbc0038I Pass  16: suminf.    1.51171 (23) obj. 29437.3 iterations 20
Cbc0038I Pass  17: suminf.    5.34065 (26) obj. 29437.3 iterations 50
Cbc0038I Pass  18: suminf.    3.61496 (24) obj. 29437.3 iterations 25
Cbc0038I Pass  19: suminf.    6.41872 (21) obj. 29437.3 iterations 51
Cbc0038I Pass  20: suminf.   15.75850 (66) obj. 29437.3 iterations 102
Cbc0038I Pass  21: suminf.    3.44786 (57) obj. 29437.3 iterations 68
Cbc0038I Pass  22: suminf.    3.44786 (57) obj. 29437.3 iterations 2
Cbc0038I Pass  23: suminf.    6.95848 (39) obj. 29437.3 iterations 69
Cbc0038I Pass  24: suminf.    5.83993 (40) obj. 29437.3 iterations 9
Cbc0038I Pass  25: suminf.    3.14760 (27) obj. 29437.3 iterations 74
Cbc0038I Pass  26: suminf.    0.99903 (23) obj. 29437.3 iterations 35
Cbc0038I Pass  27: suminf.    7.67641 (33) obj. 29437.3 iterations 91
Cbc0038I Pass  28: suminf.    7.57641 (32) obj. 29437.3 iterations 5
Cbc0038I Pass  29: suminf.    4.24395 (24) obj. 29437.3 iterations 82
Cbc0038I Pass  30: suminf.    2.44079 (14) obj. 29437.3 iterations 28
Cbc0038I Pass  31: suminf.    5.12586 (28) obj. 29437.3 iterations 39
Cbc0038I Pass  32: suminf.    2.44079 (14) obj. 29437.3 iterations 14
Cbc0038I Pass  33: suminf.   12.46698 (43) obj. 29437.3 iterations 95
Cbc0038I Pass  34: suminf.    4.88975 (40) obj. 29437.3 iterations 71
Cbc0038I Pass  35: suminf.    4.39994 (31) obj. 29437.3 iterations 24
Cbc0038I Pass  36: suminf.    2.72442 (21) obj. 29437.3 iterations 43
Cbc0038I Pass  37: suminf.    2.72442 (21) obj. 29437.3 iterations 17
Cbc0038I Pass  38: suminf.    8.83483 (50) obj. 29437.3 iterations 67
Cbc0038I Pass  39: suminf.    5.35452 (37) obj. 29437.3 iterations 44
Cbc0038I Pass  40: suminf.    4.16295 (42) obj. 29437.3 iterations 61
Cbc0038I Pass  41: suminf.    7.15883 (51) obj. 29437.3 iterations 77
Cbc0038I Pass  42: suminf.    6.81034 (52) obj. 29437.3 iterations 25
Cbc0038I Pass  43: suminf.    4.93718 (38) obj. 29437.3 iterations 105
Cbc0038I Pass  44: suminf.    3.80959 (30) obj. 29437.3 iterations 31
Cbc0038I Pass  45: suminf.    7.51696 (32) obj. 29437.3 iterations 106
Cbc0038I Pass  46: suminf.    3.20999 (29) obj. 29437.3 iterations 29
Cbc0038I Pass  47: suminf.    7.22421 (34) obj. 29437.3 iterations 72
Cbc0038I Pass  48: suminf.    4.09445 (33) obj. 29437.3 iterations 37
Cbc0038I Pass  49: suminf.    8.13824 (35) obj. 29437.3 iterations 54
Cbc0038I Pass  50: suminf.    3.50598 (19) obj. 29437.3 iterations 42
Cbc0038I Pass  51: suminf.    3.50598 (19) obj. 29437.3 iterations 2
Cbc0038I Pass  52: suminf.    0.92485 (25) obj. 29437.3 iterations 40
Cbc0038I Pass  53: suminf.    0.92485 (25) obj. 29437.3 iterations 5
Cbc0038I Pass  54: suminf.    9.77136 (39) obj. 29437.3 iterations 87
Cbc0038I Pass  55: suminf.    3.88740 (19) obj. 29437.3 iterations 73
Cbc0038I Pass  56: suminf.    2.43728 (18) obj. 29437.3 iterations 18
Cbc0038I Pass  57: suminf.    9.16893 (42) obj. 29437.3 iterations 60
Cbc0038I Pass  58: suminf.    8.33779 (52) obj. 29437.3 iterations 28
Cbc0038I Pass  59: suminf.    7.78948 (42) obj. 29437.3 iterations 50
Cbc0038I Pass  60: suminf.    3.82331 (26) obj. 29437.3 iterations 50
Cbc0038I Pass  61: suminf.    3.29222 (24) obj. 29437.3 iterations 22
Cbc0038I Pass  62: suminf.    6.71418 (31) obj. 29437.3 iterations 58
Cbc0038I Pass  63: suminf.    2.64435 (17) obj. 29437.3 iterations 22
Cbc0038I Pass  64: suminf.    2.27868 (20) obj. 29437.3 iterations 8
Cbc0038I Pass  65: suminf.    3.02056 (32) obj. 29437.3 iterations 61
Cbc0038I Pass  66: suminf.    0.92485 (25) obj. 29437.3 iterations 15
Cbc0038I Pass  67: suminf.    9.77136 (39) obj. 29437.3 iterations 81
Cbc0038I Pass  68: suminf.    3.88740 (19) obj. 29437.3 iterations 89
Cbc0038I Pass  69: suminf.    2.43728 (18) obj. 29437.3 iterations 19
Cbc0038I Pass  70: suminf.    9.16893 (42) obj. 29437.3 iterations 61
Cbc0038I Pass  71: suminf.    8.33779 (52) obj. 29437.3 iterations 37
Cbc0038I Pass  72: suminf.    9.64839 (48) obj. 29437.3 iterations 109
Cbc0038I Pass  73: suminf.    3.82331 (26) obj. 29437.3 iterations 88
Cbc0038I Pass  74: suminf.    3.29222 (24) obj. 29437.3 iterations 12
Cbc0038I Pass  75: suminf.    5.82386 (23) obj. 29437.3 iterations 69
Cbc0038I Pass  76: suminf.    2.64435 (17) obj. 29437.3 iterations 17
Cbc0038I Pass  77: suminf.    2.27868 (20) obj. 29437.3 iterations 9
Cbc0038I Pass  78: suminf.    3.02056 (32) obj. 29437.3 iterations 59
Cbc0038I Pass  79: suminf.    0.92485 (25) obj. 29437.3 iterations 11
Cbc0038I Pass  80: suminf.    9.77136 (39) obj. 29437.3 iterations 96
Cbc0038I Pass  81: suminf.    3.88740 (19) obj. 29437.3 iterations 85
Cbc0038I Pass  82: suminf.    2.43728 (18) obj. 29437.3 iterations 20
Cbc0038I Pass  83: suminf.    3.05170 (16) obj. 29437.3 iterations 89
Cbc0038I Pass  84: suminf.    0.92485 (25) obj. 29437.3 iterations 61
Cbc0038I Pass  85: suminf.    9.77136 (39) obj. 29437.3 iterations 96
Cbc0038I Pass  86: suminf.    3.88740 (19) obj. 29437.3 iterations 104
Cbc0038I Pass  87: suminf.    2.43728 (18) obj. 29437.3 iterations 36
Cbc0038I Pass  88: suminf.    9.16893 (42) obj. 29437.3 iterations 69
Cbc0038I Pass  89: suminf.    8.33779 (52) obj. 29437.3 iterations 34
Cbc0038I Pass  90: suminf.    7.57575 (35) obj. 29437.3 iterations 32
Cbc0038I Pass  91: suminf.    5.58702 (42) obj. 29437.3 iterations 27
Cbc0038I Pass  92: suminf.    3.36124 (23) obj. 29437.3 iterations 43
Cbc0038I Pass  93: suminf.    7.49492 (33) obj. 29437.3 iterations 77
Cbc0038I Pass  94: suminf.    7.13329 (34) obj. 29437.3 iterations 11
Cbc0038I Pass  95: suminf.    6.91337 (30) obj. 29437.3 iterations 63
Cbc0038I Pass  96: suminf.    3.76609 (18) obj. 29437.3 iterations 9
Cbc0038I Pass  97: suminf.    6.80608 (19) obj. 29437.3 iterations 45
Cbc0038I Pass  98: suminf.    2.47496 (16) obj. 29437.3 iterations 39
Cbc0038I Pass  99: suminf.    2.01534 (17) obj. 29437.3 iterations 16
Cbc0038I Pass 100: suminf.    5.89145 (16) obj. 29437.3 iterations 35
Cbc0038I Pass 101: suminf.    6.25663 (46) obj. 29437.3 iterations 66
Cbc0038I Pass 102: suminf.    6.18493 (45) obj. 29437.3 iterations 98
Cbc0038I No solution found this major pass
Cbc0038I Before mini branch and bound, 26 integers at bound fixed and 0 continuous
Cbc0038I Full problem 497 rows 173 columns, reduced to 436 rows 147 columns - 49 fixed gives 81, 29 - ok now
Cbc0038I Mini branch and bound did not improve solution (0.21 seconds)
Cbc0038I After 0.21 seconds - Feasibility pump exiting with objective of 29696 - took 0.18 seconds
Cbc0012I Integer solution of 29696 found by feasibility pump after 0 iterations and 0 nodes (0.21 seconds)
Cbc0038I Full problem 497 rows 173 columns, reduced to 317 rows 93 columns - 37 fixed gives 39, 16 - ok now
Cbc0006I The LP relaxation is infeasible or too expensive
Cbc0013I At root node, 0 cuts changed objective from 27118.112 to 27118.112 in 1 passes
Cbc0014I Cut generator 0 (Probing) - 10 row cuts average 1.8 elements, 34 column cuts (34 active)  in 0.001 seconds - new frequency is 1
Cbc0014I Cut generator 1 (Gomory) - 0 row cuts average 0.0 elements, 0 column cuts (0 active)  in 0.000 seconds - new frequency is -100
Cbc0014I Cut generator 2 (Knapsack) - 0 row cuts average 0.0 elements, 0 column cuts (0 active)  in 0.000 seconds - new frequency is -100
Cbc0014I Cut generator 3 (Clique) - 0 row cuts average 0.0 elements, 0 column cuts (0 active)  in 0.000 seconds - new frequency is -100
Cbc0014I Cut generator 4 (MixedIntegerRounding2) - 0 row cuts average 0.0 elements, 0 column cuts (0 active)  in 0.000 seconds - new frequency is -100
Cbc0014I Cut generator 5 (FlowCover) - 0 row cuts average 0.0 elements, 0 column cuts (0 active)  in 0.000 seconds - new frequency is -100
Cbc0014I Cut generator 6 (TwoMirCuts) - 0 row cuts average 0.0 elements, 0 column cuts (0 active)  in 0.000 seconds - new frequency is -100
Cbc0014I Cut generator 7 (ZeroHalf) - 0 row cuts average 0.0 elements, 0 column cuts (0 active)  in 0.000 seconds - new frequency is -100
Cbc0001I Search completed - best objective 29696, took 0 iterations and 0 nodes (0.23 seconds)
Cbc0035I Maximum depth 0, 2 variables fixed on reduced cost
Cuts at root node changed objective from 27118.1 to 27118.1
Probing was tried 1 times and created 44 cuts of which 0 were active after adding rounds of cuts (0.001 seconds)
Gomory was tried 0 times and created 0 cuts of which 0 were active after adding rounds of cuts (0.000 seconds)
Knapsack was tried 0 times and created 0 cuts of which 0 were active after adding rounds of cuts (0.000 seconds)
Clique was tried 0 times and created 0 cuts of which 0 were active after adding rounds of cuts (0.000 seconds)
MixedIntegerRounding2 was tried 0 times and created 0 cuts of which 0 were active after adding rounds of cuts (0.000 seconds)
FlowCover was tried 0 times and created 0 cuts of which 0 were active after adding rounds of cuts (0.000 seconds)
TwoMirCuts was tried 0 times and created 0 cuts of which 0 were active after adding rounds of cuts (0.000 seconds)
ZeroHalf was tried 0 times and created 0 cuts of which 0 were active after adding rounds of cuts (0.000 seconds)

Result - Optimal solution found

Objective value:                29696.00000000
Enumerated nodes:               0
Total iterations:               0
Time (CPU seconds):             0.24
Time (Wallclock seconds):       0.26

Total time (CPU seconds):       0.24   (Wallclock seconds):       0.27

